Executando Fernandes MODIFICADO
Rodando pra 1h
Optimize a model with 490072 rows, 734022 columns and 18079377 nonzeros
Coefficient statistics:
  Matrix range    [1e+00, 1e+07]
  Objective range [2e-01, 2e-01]
  Bounds range    [1e+00, 1e+07]
  RHS range       [1e+00, 7e+02]
Found heuristic solution: objective 36152.1
Presolve removed 1 rows and 10 columns (presolve time = 6s) ...
Presolve removed 1 rows and 10 columns (presolve time = 22s) ...
Presolve removed 1 rows and 10 columns (presolve time = 30s) ...
Presolve removed 1 rows and 10 columns (presolve time = 30s) ...
Presolve removed 1 rows and 10 columns (presolve time = 38s) ...
Presolve removed 1 rows and 10 columns (presolve time = 41s) ...
Presolve removed 1 rows and 10 columns (presolve time = 46s) ...
Presolve removed 1 rows and 10 columns (presolve time = 51s) ...
Presolve removed 1 rows and 10 columns (presolve time = 56s) ...
Presolve removed 1 rows and 10 columns (presolve time = 61s) ...
Presolve removed 1 rows and 10 columns (presolve time = 66s) ...
Presolve removed 1 rows and 10 columns (presolve time = 71s) ...
Presolve removed 1 rows and 10 columns (presolve time = 76s) ...
Presolve removed 1 rows and 10 columns (presolve time = 80s) ...
Presolve removed 1 rows and 10 columns (presolve time = 85s) ...
Presolve removed 1 rows and 10 columns (presolve time = 91s) ...
Presolve removed 1 rows and 10 columns (presolve time = 96s) ...
Presolve removed 1 rows and 10 columns (presolve time = 101s) ...
Presolve removed 1 rows and 10 columns (presolve time = 106s) ...
Presolve removed 1 rows and 10 columns (presolve time = 111s) ...
Presolve removed 1 rows and 10 columns (presolve time = 117s) ...
Presolve removed 1 rows and 10 columns (presolve time = 121s) ...
Presolve removed 1 rows and 10 columns (presolve time = 125s) ...
Presolve removed 1 rows and 10 columns (presolve time = 139s) ...
Presolve removed 1 rows and 10 columns (presolve time = 146s) ...
Presolve removed 1 rows and 10 columns (presolve time = 170s) ...
Presolve removed 1 rows and 10 columns
Presolve time: 169.52s
Presolved: 490071 rows, 734012 columns, 18079353 nonzeros
Variable types: 489300 continuous, 244712 integer (244706 binary)
Optimize a model with 490071 rows, 734012 columns and 18079353 nonzeros
Coefficient statistics:
  Matrix range    [7e-04, 1e+07]
  Objective range [2e-01, 2e-01]
  Bounds range    [1e+00, 2e+05]
  RHS range       [1e+00, 1e+07]
Presolve removed 0 rows and 0 columns (presolve time = 5s) ...
Presolve removed 0 rows and 0 columns (presolve time = 18s) ...
Presolve removed 0 rows and 0 columns (presolve time = 25s) ...
Presolve removed 0 rows and 0 columns (presolve time = 27s) ...
